Instance: Data/Instances_txt/inst_200_50_2.txt
SetUpTime: 3349.712383031845

Gurobi 10.0.1 (mac64[x86]) logging started Do  3 Aug 08:11:35 2023

Set parameter LogFile to value "Output/MILP_inst_200_50_2_2023-08-02_21-36-03.txt"
Set parameter TimeLimit to value 2700

Gurobi 10.0.1 (mac64[x86]) logging started Do  3 Aug 08:11:35 2023

Set parameter LogFile to value "Output/MILP_inst_200_50_2_2023-08-02_21-36-03.txt"
Gurobi Optimizer version 10.0.1 build v10.0.1rc0 (mac64[x86])

CPU model: Intel(R) Core(TM) i5-1038NG7 CPU @ 2.00GHz
Thread count: 4 physical cores, 8 logical processors, using up to 8 threads

Optimize a model with 401 rows, 881217 columns and 10517895 nonzeros
Model fingerprint: 0x4f8b613f
Variable types: 0 continuous, 881217 integer (0 binary)
Coefficient statistics:
  Matrix range     [1e+00, 1e+00]
  Objective range  [2e+00, 2e+04]
  Bounds range     [1e+00, 1e+00]
  RHS range        [1e+00, 1e+00]
Presolve removed 0 rows and 0 columns (presolve time = 5s) ...
Presolve removed 0 rows and 0 columns (presolve time = 10s) ...
Presolve removed 0 rows and 0 columns (presolve time = 15s) ...
Presolve removed 0 rows and 0 columns (presolve time = 20s) ...
Presolve removed 0 rows and 0 columns (presolve time = 25s) ...
Presolve removed 0 rows and 0 columns (presolve time = 30s) ...
Presolve removed 0 rows and 0 columns (presolve time = 35s) ...
Presolve removed 0 rows and 735 columns (presolve time = 40s) ...
Presolve removed 0 rows and 735 columns
Presolve time: 42.40s
Presolved: 401 rows, 880482 columns, 10507338 nonzeros
Variable types: 0 continuous, 880482 integer (880482 binary)

Root simplex log...

Iteration    Objective       Primal Inf.    Dual Inf.      Time
       0    0.0000000e+00   2.020000e+02   0.000000e+00    106s

Starting sifting (using dual simplex for sub-problems)...

    Iter     Pivots    Primal Obj      Dual Obj        Time
       0          0     infinity      0.0000000e+00    106s
       1       2511   2.0200000e+08   2.0075038e+02    106s
       2       7172   2.0200000e+08   3.9785144e+02    106s
       3       9993   2.0200000e+08   5.8999081e+02    107s
       4      12521   1.9668455e+08   1.1003626e+03    107s
       5      16374   1.9638925e+08   2.0646859e+03    108s
       6      21419   1.8736500e+08   2.4312456e+03    108s
       7      24890   1.8396760e+08   2.9017622e+03    109s
       8      32049   1.6194339e+08   3.6258947e+03    109s
       9      36652   1.6160941e+08   3.9527593e+03    110s
      10      39247   1.6160939e+08   4.5460686e+03    110s
      11      42360   1.4587663e+08   5.5038678e+03    110s
      12      48215   1.3468516e+08   5.4414973e+03    111s
      13      54676   1.3468459e+08   5.5979216e+03    112s
      14      61605   1.3468457e+08   5.8536602e+03    113s
      15      68328   1.3468444e+08   5.9502050e+03    114s
      16      75240   1.3468444e+08   6.0025598e+03    114s

Sifting complete

   88148    1.6971940e+05   5.306663e+00   1.283609e+11    117s
  124447    7.0446820e+04   0.000000e+00   1.155945e+08    120s
  176151    6.7585226e+04   0.000000e+00   2.701594e+04    126s
  186521    6.7577202e+04   0.000000e+00   0.000000e+00    128s

Root relaxation: objective 6.757720e+04, 186521 iterations, 22.43 seconds (29.15 work units)

    Nodes    |    Current Node    |     Objective Bounds      |     Work
 Expl Unexpl |  Obj  Depth IntInf | Incumbent    BestBd   Gap | It/Node Time

     0     0 67577.2023    0  322          - 67577.2023      -     -  156s
     0     0 67578.4171    0  330          - 67578.4171      -     -  156s
     0     0 67578.4171    0  330          - 67578.4171      -     -  212s
     0     0 67649.3417    0  345          - 67649.3417      -     -  569s
     0     0 67655.7679    0  350          - 67655.7679      -     -  586s
     0     0 67660.7756    0  348          - 67660.7756      -     -  601s
     0     0 67664.5353    0  341          - 67664.5353      -     -  611s
     0     0 67667.7190    0  344          - 67667.7190      -     -  617s
     0     0 67670.0045    0  350          - 67670.0045      -     -  624s
     0     0 67673.1519    0  346          - 67673.1519      -     -  630s
     0     0 67674.9745    0  334          - 67674.9745      -     -  636s
     0     0 67677.0762    0  329          - 67677.0762      -     -  641s
     0     0 67678.8995    0  338          - 67678.8995      -     -  646s
     0     0 67680.9489    0  331          - 67680.9489      -     -  646s
     0     0 68026.9733    0  407          - 68026.9733      -     -  991s
     0     0 68032.1939    0  408          - 68032.1939      -     - 1025s
     0     0 68036.5564    0  402          - 68036.5564      -     - 1049s
     0     0 68040.0654    0  404          - 68040.0654      -     - 1068s
     0     0 68042.5796    0  408          - 68042.5796      -     - 1088s
     0     0 68045.3539    0  409          - 68045.3539      -     - 1114s
     0     0 68047.0181    0  400          - 68047.0181      -     - 1131s
     0     0 68048.7966    0  403          - 68048.7966      -     - 1155s
     0     0 68050.0094    0  401          - 68050.0094      -     - 1177s
     0     0 68051.9331    0  409          - 68051.9331      -     - 1199s
     0     0 68053.1436    0  407          - 68053.1436      -     - 1211s
     0     0 68057.6978    0  397          - 68057.6978      -     - 1340s
     0     0 68058.8399    0  403          - 68058.8399      -     - 1355s
     0     0 68060.1455    0  402          - 68060.1455      -     - 1369s
     0     0 68061.3182    0  398          - 68061.3182      -     - 1388s
     0     0 68062.7169    0  403          - 68062.7169      -     - 1402s
     0     0 68063.5809    0  404          - 68063.5809      -     - 1414s
     0     0 68064.3502    0  404          - 68064.3502      -     - 1422s
     0     0 68065.1049    0  406          - 68065.1049      -     - 1433s
     0     0 68065.6931    0  401          - 68065.6931      -     - 1444s
     0     0 68066.1770    0  399          - 68066.1770      -     - 1452s
     0     0 68066.7976    0  403          - 68066.7976      -     - 1464s
     0     0 68238.4321    0  462          - 68238.4321      -     - 1733s
     0     0 68241.5251    0  460          - 68241.5251      -     - 1766s
     0     0 68243.3524    0  460          - 68243.3524      -     - 1793s
     0     0 68245.3418    0  454          - 68245.3418      -     - 1816s
     0     0 68247.0499    0  457          - 68247.0499      -     - 1836s
     0     0 68248.3501    0  459          - 68248.3501      -     - 1854s
     0     0 68249.4477    0  458          - 68249.4477      -     - 1869s
     0     0 68251.0114    0  457          - 68251.0114      -     - 1892s
     0     0 68251.7760    0  462          - 68251.7760      -     - 1903s
     0     0 68253.1021    0  461          - 68253.1021      -     - 1925s
     0     0 68253.7685    0  459          - 68253.7685      -     - 1938s
     0     0 68255.4633    0  459          - 68255.4633      -     - 1976s
     0     0 68256.1963    0  457          - 68256.1963      -     - 1991s
     0     0 68256.9971    0  460          - 68256.9971      -     - 2005s
     0     0 68257.4578    0  458          - 68257.4578      -     - 2018s
     0     0 68257.8799    0  460          - 68257.8799      -     - 2032s
     0     0 68258.3439    0  454          - 68258.3439      -     - 2043s
     0     0 68258.7818    0  461          - 68258.7818      -     - 2054s
     0     0 68259.0322    0  459          - 68259.0322      -     - 2063s
     0     0 68259.4740    0  456          - 68259.4740      -     - 2076s
     0     0 68259.7520    0  458          - 68259.7520      -     - 2087s
     0     0 68259.9173    0  459          - 68259.9173      -     - 2096s
     0     0 68261.0112    0  463          - 68261.0112      -     - 2127s
     0     0 68261.2882    0  463          - 68261.2882      -     - 2134s
     0     0 68261.5187    0  459          - 68261.5187      -     - 2142s
     0     0 68261.6457    0  459          - 68261.6457      -     - 2149s
     0     0 68261.7706    0  463          - 68261.7706      -     - 2159s
     0     0 68261.8788    0  462          - 68261.8788      -     - 2165s
     0     0 68262.0140    0  460          - 68262.0140      -     - 2173s
     0     0 68262.0829    0  463          - 68262.0829      -     - 2178s
     0     0 68262.1511    0  463          - 68262.1511      -     - 2183s
     0     0 68262.2499    0  459          - 68262.2499      -     - 2191s
     0     0 68262.3645    0  462          - 68262.3645      -     - 2198s
     0     0 68348.6527    0  496          - 68348.6527      -     - 2470s
     0     0 68351.4145    0  506          - 68351.4145      -     - 2504s
     0     0 68353.8179    0  502          - 68353.8179      -     - 2528s
     0     0 68355.5170    0  505          - 68355.5170      -     - 2556s
     0     0 68356.7581    0  504          - 68356.7581      -     - 2578s
     0     0 68357.3268    0  505          - 68357.3268      -     - 2594s
     0     0 68357.8826    0  504          - 68357.8826      -     - 2614s
     0     0 68358.4087    0  506          - 68358.4087      -     - 2630s
     0     0 68358.6459    0  505          - 68358.6459      -     - 2642s
     0     0 68358.9704    0  500          - 68358.9704      -     - 2655s
     0     0 68359.2719    0  502          - 68359.2719      -     - 2664s
     0     0          -    0               - 68359.2719      -     - 2700s

Cutting planes:
  Clique: 145
  Zero half: 1
  RLT: 2

Explored 1 nodes (557922 simplex iterations) in 2700.19 seconds (2484.30 work units)
Thread count was 8 (of 8 available processors)

Solution count 0

Time limit reached
Best objective -, best bound 6.836000000000e+04, gap -

User-callback calls 32702, time in user-callback 0.14 sec

=========================

OUTPUT STATISTICS
Relaxed: false
Time since start: 6078.7168798446655
SetUpTime: 3349.712381839752
Objective value: 0
Solving time: 2728.4894909858704
